Nb of jobs, Nb of Machines, Time seed, Machine seed, Upper bound, Lower bound
8,8,-1,-1,-1,-1
Times
80,95,62,61,52,90,6,3
65,17,63,17,7,92,73,42
37,3,12,3,22,97,85,2
61,22,7,62,70,13,40,18
31,77,78,43,78,35,84,4
28,92,32,3,23,61,68,17
5,51,88,54,75,25,37,49
84,43,17,82,97,77,47,47
Machines
6,8,7,2,1,4,3,5
4,6,1,2,5,8,3,7
4,2,7,1,8,6,5,3
3,8,7,5,2,1,4,6
3,2,4,5,1,7,6,8
8,6,1,7,2,3,5,4
5,8,2,6,4,7,3,1
5,2,7,4,8,3,6,1
